letting n =  10
letting blocks =  [[1, 1], [1, 3], [1, 5], [1, 9], [2, 3], [2, 4], [2, 5], [2, 7], [2, 10], [3, 3], [3, 4], [3, 5], [3, 6], [3, 7], [3, 8], [4, 9], [5, 3], [5, 4], [5, 9], [6, 4], [6, 5], [6, 6], [6, 8], [6, 9], [6, 10], [7, 1], [7, 2], [7, 8], [7, 9], [8, 1], [8, 7], [9, 1], [9, 2], [9, 7], [9, 9], [9, 10], [10, 2], [10, 3], [10, 4], [10, 5], [10, 6], [10, 10]]
